# Solution for model GasLib-40
# Objective value = 7.5182035350576513e+01
loadshed[innode_1] 0
loadshed[innode_2] 0
loadshed[innode_3] 0
loadshed[innode_4] 0
loadshed[innode_5] 0
loadshed[innode_6] 0
loadshed[innode_7] 0
loadshed[innode_8] 0
loadshed[source_1] 1.5048390191892747e-02
loadshed[source_2] 1.6466206265388184e-01
loadshed[source_3] 2.9585348699530079e-01
loadshed[sink_1] 0.902557163287169
loadshed[sink_2] 0
loadshed[sink_3] 0
loadshed[sink_4] 0
loadshed[sink_5] 0
loadshed[sink_6] 0
loadshed[sink_7] 0
loadshed[sink_8] 0
loadshed[sink_9] 7.7038679319501324e-01
loadshed[sink_10] 0
loadshed[sink_11] 0
loadshed[sink_12] 1
loadshed[sink_13] 0
loadshed[sink_14] 0
loadshed[sink_15] 0
loadshed[sink_16] 0
loadshed[sink_17] 0
loadshed[sink_18] 0
loadshed[sink_19] 0
loadshed[sink_20] 0
loadshed[sink_21] 1
loadshed[sink_22] 0
loadshed[sink_23] 0
loadshed[sink_24] 9.2417412864861115e-01
loadshed[sink_25] 0
loadshed[sink_26] 0
loadshed[sink_27] 0
loadshed[sink_28] 0
loadshed[sink_29] 0
flow[source_1,sink_3] 1.5571127359223306e+02
flow[innode_1,sink_16] 1.6354166666666970e+01
flow[innode_6,sink_13] 3.1604488295003961e+00
flow[sink_13,sink_14] -1.3193717837166272e+01
flow[sink_14,sink_10] -2.9547884503832940e+01
flow[sink_25,sink_26] 1.7013046464942488e+02
flow[sink_26,sink_9] 0
flow[sink_9,sink_18] -3.7551326529565547e+00
flow[sink_26,sink_4] 1.5377629798275842e+02
flow[sink_4,sink_20] 0
flow[sink_18,sink_6] -2.0109299319623222e+01
flow[sink_25,innode_8] -1.2300294025889667e+02
flow[sink_6,sink_7] -5.4411229045030964e+01
flow[sink_6,sink_22] 1.7947763058741092e+01
flow[sink_7,sink_24] 1.2400689377258405e+00
flow[sink_22,sink_1] 1.5935963920744254e+00
flow[sink_24,sink_21] 0
flow[sink_21,sink_12] 0
flow[sink_7,sink_5] -7.2005464649423459e+01
flow[sink_5,sink_17] -8.8359631316090130e+01
flow[sink_17,sink_4] -1.3742213131609176e+02
flow[sink_17,sink_8] 3.2708333333334949e+01
flow[sink_3,sink_23] 16.3541666666697
flow[sink_8,sink_20] 1.6354166666668277e+01
flow[sink_25,sink_20] 0
flow[sink_25,sink_15] -6.6642139886695844e+01
flow[sink_15,sink_29] -4.8151480472125840e+01
flow[sink_29,sink_28] 1.6354166666667879e+01
flow[sink_29,sink_2] 5.1198992747903347e+01
flow[sink_2,sink_15] 3.4844826081236675e+01
flow[sink_29,innode_7] -1.3205880655336375e+02
flow[innode_4,sink_19] 4.2824865203330958e+01
flow[sink_19,innode_3] 3.8361535823618695e+01
flow[innode_4,innode_5] 6.8493852633835544e+01
flow[sink_27,innode_5] -6.8493852633835544e+01
flow[sink_27,sink_19] 5.2139685967168880e+01
flow[sink_10,sink_11] 3.2708333333333641e+01
flow[sink_10,innode_2] -4.0248848680214607e+01
flow[sink_10,innode_3] -3.8361535823618695e+01
flow[innode_6,sink_25] -3.1604488295003961e+00
flow[sink_11,innode_1] 1.6354166666666970e+01
flow[sink_19,innode_2] 4.0248848680214607e+01
flow[source_3,innode_4] 1.1131871783716650e+02
flow[source_2,innode_7] 1.3205880655336375e+02
flow[sink_3,innode_8] 1.2300294025889667e+02
pressure[innode_1] 7.6999286398692377e+01
pressure[innode_2] 79.2783055922346
pressure[innode_3] 7.9193358315125892e+01
pressure[innode_4] 81.01325
pressure[innode_5] 8.0966136316466418e+01
pressure[innode_6] 7.5747226003119550e+01
pressure[innode_7] 81.01325
pressure[innode_8] 8.0492766696243734e+01
pressure[source_1] 81.01325
pressure[source_2] 81.01325
pressure[source_3] 81.01325
pressure[sink_1] 1.0132500000000002e+00
pressure[sink_2] 7.6184265996605490e+01
pressure[sink_3] 8.0492766696243734e+01
pressure[sink_4] 4.4213520773587661e+01
pressure[sink_5] 3.2379546198868404e+01
pressure[sink_6] 1.6861000566904796e+00
pressure[sink_7] 2.4330365347384828e+00
pressure[sink_8] 3.7727529659330422e+01
pressure[sink_9] 1.01325
pressure[sink_10] 7.7150987706295922e+01
pressure[sink_11] 7.6999286398692377e+01
pressure[sink_12] 1.01325
pressure[sink_13] 7.5729802976882581e+01
pressure[sink_14] 7.5753414258808448e+01
pressure[sink_15] 7.6070505319126227e+01
pressure[sink_16] 75.9776365638747
pressure[sink_17] 3.8961700050157610e+01
pressure[sink_18] 1.1491218916041201e+00
pressure[sink_19] 79.2783055922346
pressure[sink_20] 3.6587874235742134e+01
pressure[sink_21] 1.01325
pressure[sink_22] 1.1169066828386458e+00
pressure[sink_23] 8.0328048684583948e+01
pressure[sink_24] 1.01325
pressure[sink_25] 7.5747226003119550e+01
pressure[sink_26] 6.3765037289941745e+01
pressure[sink_27] 8.0397763902636683e+01
pressure[sink_28] 7.7185911990860646e+01
pressure[sink_29] 7.7481194264477821e+01
interdiction[source_1,sink_3] 0
interdiction[innode_1,sink_16] 0
interdiction[innode_6,sink_13] 0
interdiction[sink_13,sink_14] 0
interdiction[sink_14,sink_10] 0
interdiction[sink_25,sink_26] 0
interdiction[sink_26,sink_9] 1
interdiction[sink_9,sink_18] 0
interdiction[sink_26,sink_4] 0
interdiction[sink_4,sink_20] 1
interdiction[sink_18,sink_6] 0
interdiction[sink_25,innode_8] 0
interdiction[sink_6,sink_7] 0
interdiction[sink_6,sink_22] 0
interdiction[sink_7,sink_24] 0
interdiction[sink_22,sink_1] 0
interdiction[sink_24,sink_21] 0
interdiction[sink_21,sink_12] 0
interdiction[sink_7,sink_5] 0
interdiction[sink_5,sink_17] 0
interdiction[sink_17,sink_4] 0
interdiction[sink_17,sink_8] 0
interdiction[sink_3,sink_23] 0
interdiction[sink_8,sink_20] 0
interdiction[sink_25,sink_20] 1
interdiction[sink_25,sink_15] 0
interdiction[sink_15,sink_29] 0
interdiction[sink_29,sink_28] 0
interdiction[sink_29,sink_2] 0
interdiction[sink_2,sink_15] 0
interdiction[sink_29,innode_7] 0
interdiction[innode_4,sink_19] 0
interdiction[sink_19,innode_3] 0
interdiction[innode_4,innode_5] 0
interdiction[sink_27,innode_5] 0
interdiction[sink_27,sink_19] 0
interdiction[sink_10,sink_11] 0
interdiction[sink_10,innode_2] 0
interdiction[sink_10,innode_3] 0
interdiction[innode_6,sink_25] 0
interdiction[sink_11,innode_1] 0
interdiction[sink_19,innode_2] 0
interdiction[source_3,innode_4] 0
interdiction[source_2,innode_7] 0
interdiction[sink_3,innode_8] 0
WCcheckFlow[source_1,sink_3] 39
WCcheckFlow[innode_1,sink_16] 1
WCcheckFlow[innode_6,sink_13] 13
WCcheckFlow[sink_13,sink_14] 12
WCcheckFlow[sink_14,sink_10] 11
WCcheckFlow[sink_25,sink_26] 15
WCcheckFlow[sink_26,sink_9] 0
WCcheckFlow[sink_9,sink_18] -1
WCcheckFlow[sink_26,sink_4] 14
WCcheckFlow[sink_4,sink_20] 0
WCcheckFlow[sink_18,sink_6] -2
WCcheckFlow[sink_25,innode_8] -36
WCcheckFlow[sink_6,sink_7] -5
WCcheckFlow[sink_6,sink_22] 2
WCcheckFlow[sink_7,sink_24] 3
WCcheckFlow[sink_22,sink_1] 1
WCcheckFlow[sink_24,sink_21] 2
WCcheckFlow[sink_21,sink_12] 1
WCcheckFlow[sink_7,sink_5] -9
WCcheckFlow[sink_5,sink_17] -10
WCcheckFlow[sink_17,sink_4] -13
WCcheckFlow[sink_17,sink_8] 2
WCcheckFlow[sink_3,sink_23] 1
WCcheckFlow[sink_8,sink_20] 1
WCcheckFlow[sink_25,sink_20] 0
WCcheckFlow[sink_25,sink_15] 6
WCcheckFlow[sink_15,sink_29] 5
WCcheckFlow[sink_29,sink_28] 1
WCcheckFlow[sink_29,sink_2] 1
WCcheckFlow[sink_2,sink_15] 0
WCcheckFlow[sink_29,innode_7] 2
WCcheckFlow[innode_4,sink_19] -4
WCcheckFlow[sink_19,innode_3] -5
WCcheckFlow[innode_4,innode_5] 2
WCcheckFlow[sink_27,innode_5] -1
WCcheckFlow[sink_27,sink_19] 0
WCcheckFlow[sink_10,sink_11] 3
WCcheckFlow[sink_10,innode_2] 1
WCcheckFlow[sink_10,innode_3] 6
WCcheckFlow[innode_6,sink_25] -14
WCcheckFlow[sink_11,innode_1] 2
WCcheckFlow[sink_19,innode_2] 0
WCcheckFlow[source_3,innode_4] -1
WCcheckFlow[source_2,innode_7] -1
WCcheckFlow[sink_3,innode_8] 37
